64 100
4 10 2
10 2 3
4 2 2
10 10 2
2 7 3
10 9 1
6 5 1
5 7 1
7 1 3
3 5 2
9 3 2
4 9 2
3 4 2
2 2 1
9 4 2
8 2 1
1 1 1
4 4 1
10 6 3
6 4 1
10 3 4
9 6 1
6 3 2
7 6 2
9 2 2
7 7 2
4 6 2
8 7 1
2 1 1
2 10 2
1 4 3
9 8 1
6 10 1
9 9 1
7 2 1
9 7 2
3 3 2
1 10 1
7 8 1
1 8 1
2 8 2
1 2 1
3 2 1
8 4 1
6 2 1
3 7 2
8 6 1
7 4 2
7 5 2
5 4 2
5 1 2
4 8 1
4 3 1
3 1 1
3 8 1
2 3 2
3 9 1
4 1 1
5 9 1
3 6 1
6 9 1
1 6 1
2 4 1
10 4 1
30 30 
30 30 
30 30 
30 30 
30 30 
30 30 
30 30 
30 30 
30 30 
30 30 
30 30 
30 30 
30 30 
30 30 
30 30 
30 30 
30 30 
30 30 
30 30 
30 30 
30 30 
30 30 
30 30 
30 30 
30 30 
30 30 
30 30 
30 30 
30 30 
30 30 
30 30 
30 30 
30 30 
30 30 
30 30 
30 30 
30 30 
30 30 
30 30 
30 30 
30 30 
30 30 
30 30 
30 30 
30 30 
30 30 
30 30 
30 30 
30 30 
30 30 
30 30 
30 30 
30 30 
30 30 
30 30 
30 30 
30 30 
30 30 
30 30 
30 30 
30 30 
30 30 
30 30 
30 30 
30 30 
30 30 
30 30 
30 30 
30 30 
30 30 
30 30 
30 30 
30 30 
30 30 
30 30 
30 30 
30 30 
30 30 
30 30 
30 30 
30 30 
30 30 
30 30 
30 30 
30 30 
30 30 
30 30 
30 30 
30 30 
30 30 
30 30 
30 30 
30 30 
30 30 
30 30 
30 30 
30 30 
30 30 
30 30 
30 30 
